\ENCODING=ISO-8859-1
\Problem name: inst_11_cut_n1

Maximize
 obj1: 67 x0 + 88 x1 + 29 x2 + 90 x3 + 44 x4 + 88 x5 + 71 x6 + 29 x7 + 40 x8
       + 91 x9
Subject To
 c0:    56 x0 + 18 x1 + 38 x2 + 36 x3 + 8 x4 + x5 + 99 x6 + 15 x7 + 91 x8
        + 92 x9 + s0 <= 274
 c1:    75 x0 + 2 x1 + 43 x2 + 55 x3 + 15 x4 + 99 x5 + 18 x6 + 99 x7 + 60 x8
        + 96 x9 + s1 <= 656
 c2:    8 x0 + 59 x1 + 87 x2 + 45 x3 + 72 x4 + 37 x5 + 50 x6 + 41 x7 + 32 x8
        + 38 x9 + s2 <= 805
 cut_1: x6 <= 2
Bounds
 0 <= x0 <= 1
 0 <= x1 <= 1
 0 <= x2 <= 1
 0 <= x3 <= 1
 0 <= x4 <= 1
 0 <= x5 <= 1
 0 <= x6 <= 1
 0 <= x7 <= 1
 0 <= x8 <= 1
 0 <= x9 <= 1
End
